p tw 90 102
1 2
2 13
3 4
4 5
4 6
5 6
6 7
7 8
8 9
9 10
10 11
11 12
12 14
13 24
13 57
14 15
15 16
16 17
17 18
18 19
19 20
20 21
21 22
22 23
22 86
23 25
24 35
25 26
26 27
27 28
28 29
28 32
29 30
30 31
31 88
32 33
33 34
34 36
34 42
35 46
36 37
37 38
38 39
39 40
40 41
40 25
41 88
42 43
43 44
44 45
44 81
45 47
46 57
47 48
48 49
48 51
49 50
50 56
51 52
52 53
53 54
54 55
55 56
56 58
57 68
58 59
59 60
60 61
60 76
61 62
62 63
62 70
63 64
64 65
64 70
65 66
66 67
67 69
68 79
69 76
70 71
71 72
72 73
72 76
73 74
74 75
74 76
75 76
76 77
77 78
78 80
79 90
80 81
81 82
82 83
83 84
84 85
85 18
86 87
87 88
88 89
90 3
